Ba Cu Ni  O Pd Pt Zr 
 1.0000000000000000
    20.9600000000000009    0.0000000000000000    0.0000000000000000
     0.0000000000000000   20.9600000000000009    0.0000000000000000
     0.0000000000000000    0.0000000000000000   29.1661059230481676
 Ba  Cu  Ni  O   Pd  Pt  Zr   H
  50   4   8 150  11  29  50  2
Cartesian
  1.4365642934325016  1.1762854506009499  1.0000000000000000
  1.4365642934325016  1.1762854506009499  5.1920000000000002
  1.4365642934325016  5.3682854506009505  1.0000000000000000
  1.4365642934325016  5.3682854506009505  5.1920000000000002
  1.4365642934325016  9.5602854506009507  1.0000000000000000
  1.4365642934325016  9.5602854506009507  5.1920000000000002
  1.4365642934325016 13.7522854506009509  1.0000000000000000
  1.4365642934325016 13.7522854506009509  5.1920000000000002
  1.4365642934325016 17.9442854506009510  1.0000000000000000
  1.4365642934325016 17.9442854506009510  5.1920000000000002
  5.6285642934325013  1.1762854506009499  1.0000000000000000
  5.6285642934325013  1.1762854506009499  5.1920000000000002
  5.6285642934325013  5.3682854506009505  1.0000000000000000
  5.6285642934325013  5.3682854506009505  5.1920000000000002
  5.6285642934325013  9.5602854506009507  1.0000000000000000
  5.6285642934325013  9.5602854506009507  5.1920000000000002
  5.6285642934325013 13.7522854506009509  1.0000000000000000
  5.6285642934325013 13.7522854506009509  5.1920000000000002
  5.6285642934325013 17.9442854506009510  1.0000000000000000
  5.6285642934325013 17.9442854506009510  5.1920000000000002
  9.8205642934325024  1.1762854506009499  1.0000000000000000
  9.8205642934325024  1.1762854506009499  5.1920000000000002
  9.8205642934325024  5.3682854506009505  1.0000000000000000
  9.8205642934325024  5.3682854506009505  5.1920000000000002
  9.8205642934325024  9.5602854506009507  1.0000000000000000
  9.8205642934325024  9.5602854506009507  5.1920000000000002
  9.8205642934325024 13.7522854506009509  1.0000000000000000
  9.8205642934325024 13.7522854506009509  5.1920000000000002
  9.8205642934325024 17.9442854506009510  1.0000000000000000
  9.8205642934325024 17.9442854506009510  5.1920000000000002
 14.0125642934325025  1.1762854506009499  1.0000000000000000
 14.0125642934325025  1.1762854506009499  5.1920000000000002
 14.0125642934325025  5.3682854506009505  1.0000000000000000
 14.0125642934325025  5.3682854506009505  5.1920000000000002
 14.0125642934325025  9.5602854506009507  1.0000000000000000
 14.0125642934325025  9.5602854506009507  5.1920000000000002
 14.0125642934325025 13.7522854506009509  1.0000000000000000
 14.0125642934325025 13.7522854506009509  5.1920000000000002
 14.0125642934325025 17.9442854506009510  1.0000000000000000
 14.0125642934325025 17.9442854506009510  5.1920000000000002
 18.2045642934325045  1.1762854506009499  1.0000000000000000
 18.2045642934325045  1.1762854506009499  5.1920000000000002
 18.2045642934325045  5.3682854506009505  1.0000000000000000
 18.2045642934325045  5.3682854506009505  5.1920000000000002
 18.2045642934325045  9.5602854506009507  1.0000000000000000
 18.2045642934325045  9.5602854506009507  5.1920000000000002
 18.2045642934325045 13.7522854506009509  1.0000000000000000
 18.2045642934325045 13.7522854506009509  5.1920000000000002
 18.2045642934325045 17.9442854506009510  1.0000000000000000
 18.2045642934325045 17.9442854506009510  5.1920000000000002
 13.2872845039656209 12.3289132238225836  9.6352023970755134
  8.5715170167064638  9.4144086336547392  9.6352023970755134
 13.2872845039656209  9.4144086336547392  9.6352023970755134
  8.5715170167064638 12.3289132238225836  9.6352023970755134
 15.6451682475951994 10.8716609287386614 10.5358338456211662
  6.2136332730768844 10.8716609287386614 10.5358338456211662
  9.4721484652521202  7.0565248900251598 11.0924546921594320
 12.3866530554199645 14.6867969674521639 11.0924546921594320
 12.3866530554199645  7.0565248900251598 11.0924546921594320
 10.9294007603360424  9.4144086336547392 11.0924546921594320
 10.9294007603360424 12.3289132238225836 11.0924546921594320
  9.4721484652521202 14.6867969674521639 11.0924546921594320
  3.5325642934325017  3.2722854506009500  1.0000000000000000
  3.5325642934325017  1.1762854506009499  3.0960000000000001
  1.4365642934325016  3.2722854506009500  3.0960000000000001
  3.5325642934325017  3.2722854506009500  5.1920000000000002
  3.5325642934325017  1.1762854506009499  7.2880000000000003
  1.4365642934325016  3.2722854506009500  7.2880000000000003
  3.5325642934325017  7.4642854506009506  1.0000000000000000
  3.5325642934325017  5.3682854506009505  3.0960000000000001
  1.4365642934325016  7.4642854506009506  3.0960000000000001
  3.5325642934325017  7.4642854506009506  5.1920000000000002
  3.5325642934325017  5.3682854506009505  7.2880000000000003
  1.4365642934325016  7.4642854506009506  7.2880000000000003
  3.5325642934325017 11.6562854506009508  1.0000000000000000
  3.5325642934325017  9.5602854506009507  3.0960000000000001
  1.4365642934325016 11.6562854506009508  3.0960000000000001
  3.5325642934325017 11.6562854506009508  5.1920000000000002
  3.5325642934325017  9.5602854506009507  7.2880000000000003
  1.4365642934325016 11.6562854506009508  7.2880000000000003
  3.5325642934325017 15.8482854506009510  1.0000000000000000
  3.5325642934325017 13.7522854506009509  3.0960000000000001
  1.4365642934325016 15.8482854506009510  3.0960000000000001
  3.5325642934325017 15.8482854506009510  5.1920000000000002
  3.5325642934325017 13.7522854506009509  7.2880000000000003
  1.4365642934325016 15.8482854506009510  7.2880000000000003
  3.5325642934325017 20.0402854506009476  1.0000000000000000
  3.5325642934325017 17.9442854506009510  3.0960000000000001
  1.4365642934325016 20.0402854506009476  3.0960000000000001
  3.5325642934325017 20.0402854506009476  5.1920000000000002
  3.5325642934325017 17.9442854506009510  7.2880000000000003
  1.4365642934325016 20.0402854506009476  7.2880000000000003
  7.7245642934325014  3.2722854506009500  1.0000000000000000
  7.7245642934325014  1.1762854506009499  3.0960000000000001
  5.6285642934325013  3.2722854506009500  3.0960000000000001
  7.7245642934325014  3.2722854506009500  5.1920000000000002
  7.7245642934325014  1.1762854506009499  7.2880000000000003
  5.6285642934325013  3.2722854506009500  7.2880000000000003
  7.7245642934325014  7.4642854506009506  1.0000000000000000
  7.7245642934325014  5.3682854506009505  3.0960000000000001
  5.6285642934325013  7.4642854506009506  3.0960000000000001
  7.7245642934325014  7.4642854506009506  5.1920000000000002
  7.7245642934325014  5.3682854506009505  7.2880000000000003
  5.6285642934325013  7.4642854506009506  7.2880000000000003
  7.7245642934325014 11.6562854506009508  1.0000000000000000
  7.7245642934325014  9.5602854506009507  3.0960000000000001
  5.6285642934325013 11.6562854506009508  3.0960000000000001
  7.7245642934325014 11.6562854506009508  5.1920000000000002
  7.7245642934325014  9.5602854506009507  7.2880000000000003
  5.6285642934325013 11.6562854506009508  7.2880000000000003
  7.7245642934325014 15.8482854506009510  1.0000000000000000
  7.7245642934325014 13.7522854506009509  3.0960000000000001
  5.6285642934325013 15.8482854506009510  3.0960000000000001
  7.7245642934325014 15.8482854506009510  5.1920000000000002
  7.7245642934325014 13.7522854506009509  7.2880000000000003
  5.6285642934325013 15.8482854506009510  7.2880000000000003
  7.7245642934325014 20.0402854506009476  1.0000000000000000
  7.7245642934325014 17.9442854506009510  3.0960000000000001
  5.6285642934325013 20.0402854506009476  3.0960000000000001
  7.7245642934325014 20.0402854506009476  5.1920000000000002
  7.7245642934325014 17.9442854506009510  7.2880000000000003
  5.6285642934325013 20.0402854506009476  7.2880000000000003
 11.9165642934325025  3.2722854506009500  1.0000000000000000
 11.9165642934325025  1.1762854506009499  3.0960000000000001
  9.8205642934325024  3.2722854506009500  3.0960000000000001
 11.9165642934325025  3.2722854506009500  5.1920000000000002
 11.9165642934325025  1.1762854506009499  7.2880000000000003
  9.8205642934325024  3.2722854506009500  7.2880000000000003
 11.9165642934325025  7.4642854506009506  1.0000000000000000
 11.9165642934325025  5.3682854506009505  3.0960000000000001
  9.8205642934325024  7.4642854506009506  3.0960000000000001
 11.9165642934325025  7.4642854506009506  5.1920000000000002
 11.9165642934325025  5.3682854506009505  7.2880000000000003
  9.8205642934325024  7.4642854506009506  7.2880000000000003
 11.9165642934325025 11.6562854506009508  1.0000000000000000
 11.9165642934325025  9.5602854506009507  3.0960000000000001
  9.8205642934325024 11.6562854506009508  3.0960000000000001
 11.9165642934325025 11.6562854506009508  5.1920000000000002
 11.9165642934325025  9.5602854506009507  7.2880000000000003
  9.8205642934325024 11.6562854506009508  7.2880000000000003
 11.9165642934325025 15.8482854506009510  1.0000000000000000
 11.9165642934325025 13.7522854506009509  3.0960000000000001
  9.8205642934325024 15.8482854506009510  3.0960000000000001
 11.9165642934325025 15.8482854506009510  5.1920000000000002
 11.9165642934325025 13.7522854506009509  7.2880000000000003
  9.8205642934325024 15.8482854506009510  7.2880000000000003
 11.9165642934325025 20.0402854506009476  1.0000000000000000
 11.9165642934325025 17.9442854506009510  3.0960000000000001
  9.8205642934325024 20.0402854506009476  3.0960000000000001
 11.9165642934325025 20.0402854506009476  5.1920000000000002
 11.9165642934325025 17.9442854506009510  7.2880000000000003
  9.8205642934325024 20.0402854506009476  7.2880000000000003
 16.1085642934325008  3.2722854506009500  1.0000000000000000
 16.1085642934325008  1.1762854506009499  3.0960000000000001
 14.0125642934325025  3.2722854506009500  3.0960000000000001
 16.1085642934325008  3.2722854506009500  5.1920000000000002
 16.1085642934325008  1.1762854506009499  7.2880000000000003
 14.0125642934325025  3.2722854506009500  7.2880000000000003
 16.1085642934325008  7.4642854506009506  1.0000000000000000
 16.1085642934325008  5.3682854506009505  3.0960000000000001
 14.0125642934325025  7.4642854506009506  3.0960000000000001
 16.1085642934325008  7.4642854506009506  5.1920000000000002
 16.1085642934325008  5.3682854506009505  7.2880000000000003
 14.0125642934325025  7.4642854506009506  7.2880000000000003
 16.1085642934325008 11.6562854506009508  1.0000000000000000
 16.1085642934325008  9.5602854506009507  3.0960000000000001
 14.0125642934325025 11.6562854506009508  3.0960000000000001
 16.1085642934325008 11.6562854506009508  5.1920000000000002
 16.1085642934325008  9.5602854506009507  7.2880000000000003
 14.0125642934325025 11.6562854506009508  7.2880000000000003
 16.1085642934325008 15.8482854506009510  1.0000000000000000
 16.1085642934325008 13.7522854506009509  3.0960000000000001
 14.0125642934325025 15.8482854506009510  3.0960000000000001
 16.1085642934325008 15.8482854506009510  5.1920000000000002
 16.1085642934325008 13.7522854506009509  7.2880000000000003
 14.0125642934325025 15.8482854506009510  7.2880000000000003
 16.1085642934325008 20.0402854506009476  1.0000000000000000
 16.1085642934325008 17.9442854506009510  3.0960000000000001
 14.0125642934325025 20.0402854506009476  3.0960000000000001
 16.1085642934325008 20.0402854506009476  5.1920000000000002
 16.1085642934325008 17.9442854506009510  7.2880000000000003
 14.0125642934325025 20.0402854506009476  7.2880000000000003
 20.3005642934325010  3.2722854506009500  1.0000000000000000
 20.3005642934325010  1.1762854506009499  3.0960000000000001
 18.2045642934325045  3.2722854506009500  3.0960000000000001
 20.3005642934325010  3.2722854506009500  5.1920000000000002
 20.3005642934325010  1.1762854506009499  7.2880000000000003
 18.2045642934325045  3.2722854506009500  7.2880000000000003
 20.3005642934325010  7.4642854506009506  1.0000000000000000
 20.3005642934325010  5.3682854506009505  3.0960000000000001
 18.2045642934325045  7.4642854506009506  3.0960000000000001
 20.3005642934325010  7.4642854506009506  5.1920000000000002
 20.3005642934325010  5.3682854506009505  7.2880000000000003
 18.2045642934325045  7.4642854506009506  7.2880000000000003
 20.3005642934325010 11.6562854506009508  1.0000000000000000
 20.3005642934325010  9.5602854506009507  3.0960000000000001
 18.2045642934325045 11.6562854506009508  3.0960000000000001
 20.3005642934325010 11.6562854506009508  5.1920000000000002
 20.3005642934325010  9.5602854506009507  7.2880000000000003
 18.2045642934325045 11.6562854506009508  7.2880000000000003
 20.3005642934325010 15.8482854506009510  1.0000000000000000
 20.3005642934325010 13.7522854506009509  3.0960000000000001
 18.2045642934325045 15.8482854506009510  3.0960000000000001
 20.3005642934325010 15.8482854506009510  5.1920000000000002
 20.3005642934325010 13.7522854506009509  7.2880000000000003
 18.2045642934325045 15.8482854506009510  7.2880000000000003
 20.3005642934325010 20.0402854506009476  1.0000000000000000
 20.3005642934325010 17.9442854506009510  3.0960000000000001
 18.2045642934325045 20.0402854506009476  3.0960000000000001
 20.3005642934325010 20.0402854506009476  5.1920000000000002
 20.3005642934325010 17.9442854506009510  7.2880000000000003
 18.2045642934325045 20.0402854506009476  7.2880000000000003
 14.7445367990495448  8.5137771851090829 11.9930861407050919
 13.2872845039656209 10.8716609287386614 11.9930861407050919
 14.7445367990495448 13.2295446723682399 11.9930861407050919
  8.5715170167064638 10.8716609287386614 11.9930861407050919
  7.1142647216225390 13.2295446723682399 11.9930861407050919
  7.1142647216225390  8.5137771851090829 11.9930861407050919
 12.3866530554199645  8.5137771851090829 13.4503384357890106
 15.6451682475951994 10.8716609287386614 13.4503384357890106
 13.8439053505038885 15.5874284159978185 13.4503384357890106
 10.9294007603360424 10.8716609287386614 13.4503384357890106
 10.9294007603360424 15.5874284159978185 13.4503384357890106
  8.0148961701681962  6.1558934414795052 13.4503384357890106
  6.2136332730768844 10.8716609287386614 13.4503384357890106
  9.4721484652521202 13.2295446723682399 13.4503384357890106
 12.3866530554199645 13.2295446723682399 13.4503384357890106
  9.4721484652521202  8.5137771851090829 13.4503384357890106
  8.0148961701681962 15.5874284159978185 13.4503384357890106
 10.9294007603360424  6.1558934414795052 13.4503384357890106
 13.8439053505038885  6.1558934414795052 13.4503384357890106
  8.5715170167064638 10.8716609287386614 14.9075907308729363
 14.7445367990495448 13.2295446723682399 14.9075907308729363
  7.1142647216225390  8.5137771851090829 14.9075907308729363
 13.2872845039656209 10.8716609287386614 14.9075907308729363
  7.1142647216225390 13.2295446723682399 14.9075907308729363
 14.7445367990495448  8.5137771851090829 14.9075907308729363
 10.9294007603360424 12.3289132238225836 15.8082221794185891
 12.3866530554199645  7.0565248900251598 15.8082221794185891
 10.9294007603360424  9.4144086336547392 15.8082221794185891
  9.4721484652521202 14.6867969674521639 15.8082221794185891
 12.3866530554199645 14.6867969674521639 15.8082221794185891
  9.4721484652521202  7.0565248900251598 15.8082221794185891
 15.6451682475951994 10.8716609287386614 16.3648430259568620
  6.2136332730768844 10.8716609287386614 16.3648430259568620
 13.2872845039656209  9.4144086336547392 17.2654744745025148
 13.2872845039656209 12.3289132238225836 17.2654744745025148
  8.5715170167064638  9.4144086336547392 17.2654744745025148
  8.5715170167064638 12.3289132238225836 17.2654744745025148
 10.9294007603360424  7.9571563385708162 18.1661059230481676
 10.9294007603360424 10.8716609287386614 18.1661059230481676
 10.9294007603360424 13.7861655189065075 18.1661059230481676
  3.5325642934325017  3.2722854506009500  3.0960000000000001
  3.5325642934325017  3.2722854506009500  7.2880000000000003
  3.5325642934325017  7.4642854506009506  3.0960000000000001
  3.5325642934325017  7.4642854506009506  7.2880000000000003
  3.5325642934325017 11.6562854506009508  3.0960000000000001
  3.5325642934325017 11.6562854506009508  7.2880000000000003
  3.5325642934325017 15.8482854506009510  3.0960000000000001
  3.5325642934325017 15.8482854506009510  7.2880000000000003
  3.5325642934325017 20.0402854506009476  3.0960000000000001
  3.5325642934325017 20.0402854506009476  7.2880000000000003
  7.7245642934325014  3.2722854506009500  3.0960000000000001
  7.7245642934325014  3.2722854506009500  7.2880000000000003
  7.7245642934325014  7.4642854506009506  3.0960000000000001
  7.7245642934325014  7.4642854506009506  7.2880000000000003
  7.7245642934325014 11.6562854506009508  3.0960000000000001
  7.7245642934325014 11.6562854506009508  7.2880000000000003
  7.7245642934325014 15.8482854506009510  3.0960000000000001
  7.7245642934325014 15.8482854506009510  7.2880000000000003
  7.7245642934325014 20.0402854506009476  3.0960000000000001
  7.7245642934325014 20.0402854506009476  7.2880000000000003
 11.9165642934325025  3.2722854506009500  3.0960000000000001
 11.9165642934325025  3.2722854506009500  7.2880000000000003
 11.9165642934325025  7.4642854506009506  3.0960000000000001
 11.9165642934325025  7.4642854506009506  7.2880000000000003
 11.9165642934325025 11.6562854506009508  3.0960000000000001
 11.9165642934325025 11.6562854506009508  7.2880000000000003
 11.9165642934325025 15.8482854506009510  3.0960000000000001
 11.9165642934325025 15.8482854506009510  7.2880000000000003
 11.9165642934325025 20.0402854506009476  3.0960000000000001
 11.9165642934325025 20.0402854506009476  7.2880000000000003
 16.1085642934325008  3.2722854506009500  3.0960000000000001
 16.1085642934325008  3.2722854506009500  7.2880000000000003
 16.1085642934325008  7.4642854506009506  3.0960000000000001
 16.1085642934325008  7.4642854506009506  7.2880000000000003
 16.1085642934325008 11.6562854506009508  3.0960000000000001
 16.1085642934325008 11.6562854506009508  7.2880000000000003
 16.1085642934325008 15.8482854506009510  3.0960000000000001
 16.1085642934325008 15.8482854506009510  7.2880000000000003
 16.1085642934325008 20.0402854506009476  3.0960000000000001
 16.1085642934325008 20.0402854506009476  7.2880000000000003
 20.3005642934325010  3.2722854506009500  3.0960000000000001
 20.3005642934325010  3.2722854506009500  7.2880000000000003
 20.3005642934325010  7.4642854506009506  3.0960000000000001
 20.3005642934325010  7.4642854506009506  7.2880000000000003
 20.3005642934325010 11.6562854506009508  3.0960000000000001
 20.3005642934325010 11.6562854506009508  7.2880000000000003
 20.3005642934325010 15.8482854506009510  3.0960000000000001
 20.3005642934325010 15.8482854506009510  7.2880000000000003
 20.3005642934325010 20.0402854506009476  3.0960000000000001
 20.3005642934325010 20.0402854506009476  7.2880000000000003
  8.3005642934325010 20.0402854506009476  9.2880000000000003
 20.3005642934325010  8.0402854506009476  9.2880000000000003
