Cu Ni Pd Pt 
 1.0000000000000000
    20.0000000000000000    0.0000000000000000    0.0000000000000000
     0.0000000000000000   20.0000000000000000    0.0000000000000000
     0.0000000000000000    0.0000000000000000   20.0000000000000000
 Cu  Ni  Pd  Pt 
   4   8  11  29
Cartesian
 12.3578837436295785 11.4572522950839222  0.1848639612864980
  7.6421162563704215  8.5427477049160778  0.1848639612864980
 12.3578837436295785  8.5427477049160778  0.1848639612864980
  7.6421162563704215 11.4572522950839222  0.1848639612864980
 14.7157674872591571 10.0000000000000000  1.0854954098321539
  5.2842325127408420 10.0000000000000000  1.0854954098321539
  8.5427477049160778  6.1848639612864975  1.6421162563704210
 11.4572522950839222 13.8151360387135025  1.6421162563704210
 11.4572522950839222  6.1848639612864975  1.6421162563704210
 10.0000000000000000  8.5427477049160778  1.6421162563704210
 10.0000000000000000 11.4572522950839222  1.6421162563704210
  8.5427477049160778 13.8151360387135025  1.6421162563704210
 13.8151360387135025  7.6421162563704215  2.5427477049160769
 12.3578837436295785 10.0000000000000000  2.5427477049160769
 13.8151360387135025 12.3578837436295785  2.5427477049160769
  7.6421162563704215 10.0000000000000000  2.5427477049160769
  6.1848639612864975 12.3578837436295785  2.5427477049160769
  6.1848639612864975  7.6421162563704215  2.5427477049160769
 11.4572522950839222  7.6421162563704215  4.0000000000000000
 14.7157674872591571 10.0000000000000000  4.0000000000000000
 12.9145045901678461 14.7157674872591571  4.0000000000000000
 10.0000000000000000 10.0000000000000000  4.0000000000000000
 10.0000000000000000 14.7157674872591571  4.0000000000000000
  7.0854954098321539  5.2842325127408420  4.0000000000000000
  5.2842325127408420 10.0000000000000000  4.0000000000000000
  8.5427477049160778 12.3578837436295785  4.0000000000000000
 11.4572522950839222 12.3578837436295785  4.0000000000000000
  8.5427477049160778  7.6421162563704215  4.0000000000000000
  7.0854954098321539 14.7157674872591571  4.0000000000000000
 10.0000000000000000  5.2842325127408420  4.0000000000000000
 12.9145045901678461  5.2842325127408420  4.0000000000000000
  7.6421162563704215 10.0000000000000000  5.4572522950839231
 13.8151360387135025 12.3578837436295785  5.4572522950839231
  6.1848639612864975  7.6421162563704215  5.4572522950839231
 12.3578837436295785 10.0000000000000000  5.4572522950839231
  6.1848639612864975 12.3578837436295785  5.4572522950839231
 13.8151360387135025  7.6421162563704215  5.4572522950839231
 10.0000000000000000 11.4572522950839222  6.3578837436295785
 11.4572522950839222  6.1848639612864975  6.3578837436295785
 10.0000000000000000  8.5427477049160778  6.3578837436295785
  8.5427477049160778 13.8151360387135025  6.3578837436295785
 11.4572522950839222 13.8151360387135025  6.3578837436295785
  8.5427477049160778  6.1848639612864975  6.3578837436295785
 14.7157674872591571 10.0000000000000000  6.9145045901678461
  5.2842325127408420 10.0000000000000000  6.9145045901678461
 12.3578837436295785  8.5427477049160778  7.8151360387135025
 12.3578837436295785 11.4572522950839222  7.8151360387135025
  7.6421162563704215  8.5427477049160778  7.8151360387135025
  7.6421162563704215 11.4572522950839222  7.8151360387135025
 10.0000000000000000  7.0854954098321539  8.7157674872591571
 10.0000000000000000 10.0000000000000000  8.7157674872591571
 10.0000000000000000 12.9145045901678461  8.7157674872591571
