Ba Cu Ni  O Pd Pt Zr 
 1.0000000000000000
    20.9600000000000009    0.0000000000000000    0.0000000000000000
     0.0000000000000000   20.9600000000000009    0.0000000000000000
     0.0000000000000000    0.0000000000000000   37.6074621167024787
 Ba  Cu  Ni  O   Pd  Pt  Zr 
 100   4   8 300  11  29 100
Cartesian
  1.0205944664947357  1.2841305315790883  1.0000000000000000
  1.0205944664947357  1.2841305315790883  5.1920000000000002
  1.0205944664947357  1.2841305315790883  9.3840000000000003
  1.0205944664947357  1.2841305315790883 13.5760000000000005
  1.0205944664947357  5.4761305315790887  1.0000000000000000
  1.0205944664947357  5.4761305315790887  5.1920000000000002
  1.0205944664947357  5.4761305315790887  9.3840000000000003
  1.0205944664947357  5.4761305315790887 13.5760000000000005
  1.0205944664947357  9.6681305315790880  1.0000000000000000
  1.0205944664947357  9.6681305315790880  5.1920000000000002
  1.0205944664947357  9.6681305315790880  9.3840000000000003
  1.0205944664947357  9.6681305315790880 13.5760000000000005
  1.0205944664947357 13.8601305315790881  1.0000000000000000
  1.0205944664947357 13.8601305315790881  5.1920000000000002
  1.0205944664947357 13.8601305315790881  9.3840000000000003
  1.0205944664947357 13.8601305315790881 13.5760000000000005
  1.0205944664947357 18.0521305315790919  1.0000000000000000
  1.0205944664947357 18.0521305315790919  5.1920000000000002
  1.0205944664947357 18.0521305315790919  9.3840000000000003
  1.0205944664947357 18.0521305315790919 13.5760000000000005
  5.2125944664947355  1.2841305315790883  1.0000000000000000
  5.2125944664947355  1.2841305315790883  5.1920000000000002
  5.2125944664947355  1.2841305315790883  9.3840000000000003
  5.2125944664947355  1.2841305315790883 13.5760000000000005
  5.2125944664947355  5.4761305315790887  1.0000000000000000
  5.2125944664947355  5.4761305315790887  5.1920000000000002
  5.2125944664947355  5.4761305315790887  9.3840000000000003
  5.2125944664947355  5.4761305315790887 13.5760000000000005
  5.2125944664947355  9.6681305315790880  1.0000000000000000
  5.2125944664947355  9.6681305315790880  5.1920000000000002
  5.2125944664947355  9.6681305315790880  9.3840000000000003
  5.2125944664947355  9.6681305315790880 13.5760000000000005
  5.2125944664947355 13.8601305315790881  1.0000000000000000
  5.2125944664947355 13.8601305315790881  5.1920000000000002
  5.2125944664947355 13.8601305315790881  9.3840000000000003
  5.2125944664947355 13.8601305315790881 13.5760000000000005
  5.2125944664947355 18.0521305315790919  1.0000000000000000
  5.2125944664947355 18.0521305315790919  5.1920000000000002
  5.2125944664947355 18.0521305315790919  9.3840000000000003
  5.2125944664947355 18.0521305315790919 13.5760000000000005
  9.4045944664947356  1.2841305315790883  1.0000000000000000
  9.4045944664947356  1.2841305315790883  5.1920000000000002
  9.4045944664947356  1.2841305315790883  9.3840000000000003
  9.4045944664947356  1.2841305315790883 13.5760000000000005
  9.4045944664947356  5.4761305315790887  1.0000000000000000
  9.4045944664947356  5.4761305315790887  5.1920000000000002
  9.4045944664947356  5.4761305315790887  9.3840000000000003
  9.4045944664947356  5.4761305315790887 13.5760000000000005
  9.4045944664947356  9.6681305315790880  1.0000000000000000
  9.4045944664947356  9.6681305315790880  5.1920000000000002
  9.4045944664947356  9.6681305315790880  9.3840000000000003
  9.4045944664947356  9.6681305315790880 13.5760000000000005
  9.4045944664947356 13.8601305315790881  1.0000000000000000
  9.4045944664947356 13.8601305315790881  5.1920000000000002
  9.4045944664947356 13.8601305315790881  9.3840000000000003
  9.4045944664947356 13.8601305315790881 13.5760000000000005
  9.4045944664947356 18.0521305315790919  1.0000000000000000
  9.4045944664947356 18.0521305315790919  5.1920000000000002
  9.4045944664947356 18.0521305315790919  9.3840000000000003
  9.4045944664947356 18.0521305315790919 13.5760000000000005
 13.5965944664947358  1.2841305315790883  1.0000000000000000
 13.5965944664947358  1.2841305315790883  5.1920000000000002
 13.5965944664947358  1.2841305315790883  9.3840000000000003
 13.5965944664947358  1.2841305315790883 13.5760000000000005
 13.5965944664947358  5.4761305315790887  1.0000000000000000
 13.5965944664947358  5.4761305315790887  5.1920000000000002
 13.5965944664947358  5.4761305315790887  9.3840000000000003
 13.5965944664947358  5.4761305315790887 13.5760000000000005
 13.5965944664947358  9.6681305315790880  1.0000000000000000
 13.5965944664947358  9.6681305315790880  5.1920000000000002
 13.5965944664947358  9.6681305315790880  9.3840000000000003
 13.5965944664947358  9.6681305315790880 13.5760000000000005
 13.5965944664947358 13.8601305315790881  1.0000000000000000
 13.5965944664947358 13.8601305315790881  5.1920000000000002
 13.5965944664947358 13.8601305315790881  9.3840000000000003
 13.5965944664947358 13.8601305315790881 13.5760000000000005
 13.5965944664947358 18.0521305315790919  1.0000000000000000
 13.5965944664947358 18.0521305315790919  5.1920000000000002
 13.5965944664947358 18.0521305315790919  9.3840000000000003
 13.5965944664947358 18.0521305315790919 13.5760000000000005
 17.7885944664947395  1.2841305315790883  1.0000000000000000
 17.7885944664947395  1.2841305315790883  5.1920000000000002
 17.7885944664947395  1.2841305315790883  9.3840000000000003
 17.7885944664947395  1.2841305315790883 13.5760000000000005
 17.7885944664947395  5.4761305315790887  1.0000000000000000
 17.7885944664947395  5.4761305315790887  5.1920000000000002
 17.7885944664947395  5.4761305315790887  9.3840000000000003
 17.7885944664947395  5.4761305315790887 13.5760000000000005
 17.7885944664947395  9.6681305315790880  1.0000000000000000
 17.7885944664947395  9.6681305315790880  5.1920000000000002
 17.7885944664947395  9.6681305315790880  9.3840000000000003
 17.7885944664947395  9.6681305315790880 13.5760000000000005
 17.7885944664947395 13.8601305315790881  1.0000000000000000
 17.7885944664947395 13.8601305315790881  5.1920000000000002
 17.7885944664947395 13.8601305315790881  9.3840000000000003
 17.7885944664947395 13.8601305315790881 13.5760000000000005
 17.7885944664947395 18.0521305315790919  1.0000000000000000
 17.7885944664947395 18.0521305315790919  5.1920000000000002
 17.7885944664947395 18.0521305315790919  9.3840000000000003
 17.7885944664947395 18.0521305315790919 13.5760000000000005
 13.0741875066777471 12.2001163784408408 18.0765585907298174
  8.3584200194185900  9.2856117882729965 18.0765585907298174
 13.0741875066777471  9.2856117882729965 18.0765585907298174
  8.3584200194185900 12.2001163784408408 18.0765585907298174
 15.4320712503073256 10.7428640833569187 18.9771900392754738
  6.0005362757890115 10.7428640833569187 18.9771900392754738
  9.2590514679642464  6.9277280446434162 19.5338108858137431
 12.1735560581320907 14.5580001220704212 19.5338108858137431
 12.1735560581320907  6.9277280446434162 19.5338108858137431
 10.7163037630481686  9.2856117882729965 19.5338108858137431
 10.7163037630481686 12.2001163784408408 19.5338108858137431
  9.2590514679642464 14.5580001220704212 19.5338108858137431
  3.1165944664947358  3.3801305315790882  1.0000000000000000
  3.1165944664947358  1.2841305315790883  3.0960000000000001
  1.0205944664947357  3.3801305315790882  3.0960000000000001
  3.1165944664947358  3.3801305315790882  5.1920000000000002
  3.1165944664947358  1.2841305315790883  7.2879999999999967
  1.0205944664947357  3.3801305315790882  7.2879999999999967
  3.1165944664947358  3.3801305315790882  9.3840000000000003
  3.1165944664947358  1.2841305315790883 11.4799999999999969
  1.0205944664947357  3.3801305315790882 11.4799999999999969
  3.1165944664947358  3.3801305315790882 13.5760000000000005
  3.1165944664947358  1.2841305315790883 15.6719999999999970
  1.0205944664947357  3.3801305315790882 15.6719999999999970
  3.1165944664947358  7.5721305315790888  1.0000000000000000
  3.1165944664947358  5.4761305315790887  3.0960000000000001
  1.0205944664947357  7.5721305315790888  3.0960000000000001
  3.1165944664947358  7.5721305315790888  5.1920000000000002
  3.1165944664947358  5.4761305315790887  7.2879999999999967
  1.0205944664947357  7.5721305315790888  7.2879999999999967
  3.1165944664947358  7.5721305315790888  9.3840000000000003
  3.1165944664947358  5.4761305315790887 11.4799999999999969
  1.0205944664947357  7.5721305315790888 11.4799999999999969
  3.1165944664947358  7.5721305315790888 13.5760000000000005
  3.1165944664947358  5.4761305315790887 15.6719999999999970
  1.0205944664947357  7.5721305315790888 15.6719999999999970
  3.1165944664947358 11.7641305315790881  1.0000000000000000
  3.1165944664947358  9.6681305315790880  3.0960000000000001
  1.0205944664947357 11.7641305315790881  3.0960000000000001
  3.1165944664947358 11.7641305315790881  5.1920000000000002
  3.1165944664947358  9.6681305315790880  7.2879999999999967
  1.0205944664947357 11.7641305315790881  7.2879999999999967
  3.1165944664947358 11.7641305315790881  9.3840000000000003
  3.1165944664947358  9.6681305315790880 11.4799999999999969
  1.0205944664947357 11.7641305315790881 11.4799999999999969
  3.1165944664947358 11.7641305315790881 13.5760000000000005
  3.1165944664947358  9.6681305315790880 15.6719999999999970
  1.0205944664947357 11.7641305315790881 15.6719999999999970
  3.1165944664947358 15.9561305315790882  1.0000000000000000
  3.1165944664947358 13.8601305315790881  3.0960000000000001
  1.0205944664947357 15.9561305315790882  3.0960000000000001
  3.1165944664947358 15.9561305315790882  5.1920000000000002
  3.1165944664947358 13.8601305315790881  7.2879999999999967
  1.0205944664947357 15.9561305315790882  7.2879999999999967
  3.1165944664947358 15.9561305315790882  9.3840000000000003
  3.1165944664947358 13.8601305315790881 11.4799999999999969
  1.0205944664947357 15.9561305315790882 11.4799999999999969
  3.1165944664947358 15.9561305315790882 13.5760000000000005
  3.1165944664947358 13.8601305315790881 15.6719999999999970
  1.0205944664947357 15.9561305315790882 15.6719999999999970
  3.1165944664947358 20.1481305315790884  1.0000000000000000
  3.1165944664947358 18.0521305315790919  3.0960000000000001
  1.0205944664947357 20.1481305315790884  3.0960000000000001
  3.1165944664947358 20.1481305315790884  5.1920000000000002
  3.1165944664947358 18.0521305315790919  7.2879999999999967
  1.0205944664947357 20.1481305315790884  7.2879999999999967
  3.1165944664947358 20.1481305315790884  9.3840000000000003
  3.1165944664947358 18.0521305315790919 11.4799999999999969
  1.0205944664947357 20.1481305315790884 11.4799999999999969
  3.1165944664947358 20.1481305315790884 13.5760000000000005
  3.1165944664947358 18.0521305315790919 15.6719999999999970
  1.0205944664947357 20.1481305315790884 15.6719999999999970
  7.3085944664947355  3.3801305315790882  1.0000000000000000
  7.3085944664947355  1.2841305315790883  3.0960000000000001
  5.2125944664947355  3.3801305315790882  3.0960000000000001
  7.3085944664947355  3.3801305315790882  5.1920000000000002
  7.3085944664947355  1.2841305315790883  7.2879999999999967
  5.2125944664947355  3.3801305315790882  7.2879999999999967
  7.3085944664947355  3.3801305315790882  9.3840000000000003
  7.3085944664947355  1.2841305315790883 11.4799999999999969
  5.2125944664947355  3.3801305315790882 11.4799999999999969
  7.3085944664947355  3.3801305315790882 13.5760000000000005
  7.3085944664947355  1.2841305315790883 15.6719999999999970
  5.2125944664947355  3.3801305315790882 15.6719999999999970
  7.3085944664947355  7.5721305315790888  1.0000000000000000
  7.3085944664947355  5.4761305315790887  3.0960000000000001
  5.2125944664947355  7.5721305315790888  3.0960000000000001
  7.3085944664947355  7.5721305315790888  5.1920000000000002
  7.3085944664947355  5.4761305315790887  7.2879999999999967
  5.2125944664947355  7.5721305315790888  7.2879999999999967
  7.3085944664947355  7.5721305315790888  9.3840000000000003
  7.3085944664947355  5.4761305315790887 11.4799999999999969
  5.2125944664947355  7.5721305315790888 11.4799999999999969
  7.3085944664947355  7.5721305315790888 13.5760000000000005
  7.3085944664947355  5.4761305315790887 15.6719999999999970
  5.2125944664947355  7.5721305315790888 15.6719999999999970
  7.3085944664947355 11.7641305315790881  1.0000000000000000
  7.3085944664947355  9.6681305315790880  3.0960000000000001
  5.2125944664947355 11.7641305315790881  3.0960000000000001
  7.3085944664947355 11.7641305315790881  5.1920000000000002
  7.3085944664947355  9.6681305315790880  7.2879999999999967
  5.2125944664947355 11.7641305315790881  7.2879999999999967
  7.3085944664947355 11.7641305315790881  9.3840000000000003
  7.3085944664947355  9.6681305315790880 11.4799999999999969
  5.2125944664947355 11.7641305315790881 11.4799999999999969
  7.3085944664947355 11.7641305315790881 13.5760000000000005
  7.3085944664947355  9.6681305315790880 15.6719999999999970
  5.2125944664947355 11.7641305315790881 15.6719999999999970
  7.3085944664947355 15.9561305315790882  1.0000000000000000
  7.3085944664947355 13.8601305315790881  3.0960000000000001
  5.2125944664947355 15.9561305315790882  3.0960000000000001
  7.3085944664947355 15.9561305315790882  5.1920000000000002
  7.3085944664947355 13.8601305315790881  7.2879999999999967
  5.2125944664947355 15.9561305315790882  7.2879999999999967
  7.3085944664947355 15.9561305315790882  9.3840000000000003
  7.3085944664947355 13.8601305315790881 11.4799999999999969
  5.2125944664947355 15.9561305315790882 11.4799999999999969
  7.3085944664947355 15.9561305315790882 13.5760000000000005
  7.3085944664947355 13.8601305315790881 15.6719999999999970
  5.2125944664947355 15.9561305315790882 15.6719999999999970
  7.3085944664947355 20.1481305315790884  1.0000000000000000
  7.3085944664947355 18.0521305315790919  3.0960000000000001
  5.2125944664947355 20.1481305315790884  3.0960000000000001
  7.3085944664947355 20.1481305315790884  5.1920000000000002
  7.3085944664947355 18.0521305315790919  7.2879999999999967
  5.2125944664947355 20.1481305315790884  7.2879999999999967
  7.3085944664947355 20.1481305315790884  9.3840000000000003
  7.3085944664947355 18.0521305315790919 11.4799999999999969
  5.2125944664947355 20.1481305315790884 11.4799999999999969
  7.3085944664947355 20.1481305315790884 13.5760000000000005
  7.3085944664947355 18.0521305315790919 15.6719999999999970
  5.2125944664947355 20.1481305315790884 15.6719999999999970
 11.5005944664947357  3.3801305315790882  1.0000000000000000
 11.5005944664947357  1.2841305315790883  3.0960000000000001
  9.4045944664947356  3.3801305315790882  3.0960000000000001
 11.5005944664947357  3.3801305315790882  5.1920000000000002
 11.5005944664947357  1.2841305315790883  7.2879999999999967
  9.4045944664947356  3.3801305315790882  7.2879999999999967
 11.5005944664947357  3.3801305315790882  9.3840000000000003
 11.5005944664947357  1.2841305315790883 11.4799999999999969
  9.4045944664947356  3.3801305315790882 11.4799999999999969
 11.5005944664947357  3.3801305315790882 13.5760000000000005
 11.5005944664947357  1.2841305315790883 15.6719999999999970
  9.4045944664947356  3.3801305315790882 15.6719999999999970
 11.5005944664947357  7.5721305315790888  1.0000000000000000
 11.5005944664947357  5.4761305315790887  3.0960000000000001
  9.4045944664947356  7.5721305315790888  3.0960000000000001
 11.5005944664947357  7.5721305315790888  5.1920000000000002
 11.5005944664947357  5.4761305315790887  7.2879999999999967
  9.4045944664947356  7.5721305315790888  7.2879999999999967
 11.5005944664947357  7.5721305315790888  9.3840000000000003
 11.5005944664947357  5.4761305315790887 11.4799999999999969
  9.4045944664947356  7.5721305315790888 11.4799999999999969
 11.5005944664947357  7.5721305315790888 13.5760000000000005
 11.5005944664947357  5.4761305315790887 15.6719999999999970
  9.4045944664947356  7.5721305315790888 15.6719999999999970
 11.5005944664947357 11.7641305315790881  1.0000000000000000
 11.5005944664947357  9.6681305315790880  3.0960000000000001
  9.4045944664947356 11.7641305315790881  3.0960000000000001
 11.5005944664947357 11.7641305315790881  5.1920000000000002
 11.5005944664947357  9.6681305315790880  7.2879999999999967
  9.4045944664947356 11.7641305315790881  7.2879999999999967
 11.5005944664947357 11.7641305315790881  9.3840000000000003
 11.5005944664947357  9.6681305315790880 11.4799999999999969
  9.4045944664947356 11.7641305315790881 11.4799999999999969
 11.5005944664947357 11.7641305315790881 13.5760000000000005
 11.5005944664947357  9.6681305315790880 15.6719999999999970
  9.4045944664947356 11.7641305315790881 15.6719999999999970
 11.5005944664947357 15.9561305315790882  1.0000000000000000
 11.5005944664947357 13.8601305315790881  3.0960000000000001
  9.4045944664947356 15.9561305315790882  3.0960000000000001
 11.5005944664947357 15.9561305315790882  5.1920000000000002
 11.5005944664947357 13.8601305315790881  7.2879999999999967
  9.4045944664947356 15.9561305315790882  7.2879999999999967
 11.5005944664947357 15.9561305315790882  9.3840000000000003
 11.5005944664947357 13.8601305315790881 11.4799999999999969
  9.4045944664947356 15.9561305315790882 11.4799999999999969
 11.5005944664947357 15.9561305315790882 13.5760000000000005
 11.5005944664947357 13.8601305315790881 15.6719999999999970
  9.4045944664947356 15.9561305315790882 15.6719999999999970
 11.5005944664947357 20.1481305315790884  1.0000000000000000
 11.5005944664947357 18.0521305315790919  3.0960000000000001
  9.4045944664947356 20.1481305315790884  3.0960000000000001
 11.5005944664947357 20.1481305315790884  5.1920000000000002
 11.5005944664947357 18.0521305315790919  7.2879999999999967
  9.4045944664947356 20.1481305315790884  7.2879999999999967
 11.5005944664947357 20.1481305315790884  9.3840000000000003
 11.5005944664947357 18.0521305315790919 11.4799999999999969
  9.4045944664947356 20.1481305315790884 11.4799999999999969
 11.5005944664947357 20.1481305315790884 13.5760000000000005
 11.5005944664947357 18.0521305315790919 15.6719999999999970
  9.4045944664947356 20.1481305315790884 15.6719999999999970
 15.6925944664947359  3.3801305315790882  1.0000000000000000
 15.6925944664947359  1.2841305315790883  3.0960000000000001
 13.5965944664947358  3.3801305315790882  3.0960000000000001
 15.6925944664947359  3.3801305315790882  5.1920000000000002
 15.6925944664947359  1.2841305315790883  7.2879999999999967
 13.5965944664947358  3.3801305315790882  7.2879999999999967
 15.6925944664947359  3.3801305315790882  9.3840000000000003
 15.6925944664947359  1.2841305315790883 11.4799999999999969
 13.5965944664947358  3.3801305315790882 11.4799999999999969
 15.6925944664947359  3.3801305315790882 13.5760000000000005
 15.6925944664947359  1.2841305315790883 15.6719999999999970
 13.5965944664947358  3.3801305315790882 15.6719999999999970
 15.6925944664947359  7.5721305315790888  1.0000000000000000
 15.6925944664947359  5.4761305315790887  3.0960000000000001
 13.5965944664947358  7.5721305315790888  3.0960000000000001
 15.6925944664947359  7.5721305315790888  5.1920000000000002
 15.6925944664947359  5.4761305315790887  7.2879999999999967
 13.5965944664947358  7.5721305315790888  7.2879999999999967
 15.6925944664947359  7.5721305315790888  9.3840000000000003
 15.6925944664947359  5.4761305315790887 11.4799999999999969
 13.5965944664947358  7.5721305315790888 11.4799999999999969
 15.6925944664947359  7.5721305315790888 13.5760000000000005
 15.6925944664947359  5.4761305315790887 15.6719999999999970
 13.5965944664947358  7.5721305315790888 15.6719999999999970
 15.6925944664947359 11.7641305315790881  1.0000000000000000
 15.6925944664947359  9.6681305315790880  3.0960000000000001
 13.5965944664947358 11.7641305315790881  3.0960000000000001
 15.6925944664947359 11.7641305315790881  5.1920000000000002
 15.6925944664947359  9.6681305315790880  7.2879999999999967
 13.5965944664947358 11.7641305315790881  7.2879999999999967
 15.6925944664947359 11.7641305315790881  9.3840000000000003
 15.6925944664947359  9.6681305315790880 11.4799999999999969
 13.5965944664947358 11.7641305315790881 11.4799999999999969
 15.6925944664947359 11.7641305315790881 13.5760000000000005
 15.6925944664947359  9.6681305315790880 15.6719999999999970
 13.5965944664947358 11.7641305315790881 15.6719999999999970
 15.6925944664947359 15.9561305315790882  1.0000000000000000
 15.6925944664947359 13.8601305315790881  3.0960000000000001
 13.5965944664947358 15.9561305315790882  3.0960000000000001
 15.6925944664947359 15.9561305315790882  5.1920000000000002
 15.6925944664947359 13.8601305315790881  7.2879999999999967
 13.5965944664947358 15.9561305315790882  7.2879999999999967
 15.6925944664947359 15.9561305315790882  9.3840000000000003
 15.6925944664947359 13.8601305315790881 11.4799999999999969
 13.5965944664947358 15.9561305315790882 11.4799999999999969
 15.6925944664947359 15.9561305315790882 13.5760000000000005
 15.6925944664947359 13.8601305315790881 15.6719999999999970
 13.5965944664947358 15.9561305315790882 15.6719999999999970
 15.6925944664947359 20.1481305315790884  1.0000000000000000
 15.6925944664947359 18.0521305315790919  3.0960000000000001
 13.5965944664947358 20.1481305315790884  3.0960000000000001
 15.6925944664947359 20.1481305315790884  5.1920000000000002
 15.6925944664947359 18.0521305315790919  7.2879999999999967
 13.5965944664947358 20.1481305315790884  7.2879999999999967
 15.6925944664947359 20.1481305315790884  9.3840000000000003
 15.6925944664947359 18.0521305315790919 11.4799999999999969
 13.5965944664947358 20.1481305315790884 11.4799999999999969
 15.6925944664947359 20.1481305315790884 13.5760000000000005
 15.6925944664947359 18.0521305315790919 15.6719999999999970
 13.5965944664947358 20.1481305315790884 15.6719999999999970
 19.8845944664947361  3.3801305315790882  1.0000000000000000
 19.8845944664947361  1.2841305315790883  3.0960000000000001
 17.7885944664947395  3.3801305315790882  3.0960000000000001
 19.8845944664947361  3.3801305315790882  5.1920000000000002
 19.8845944664947361  1.2841305315790883  7.2879999999999967
 17.7885944664947395  3.3801305315790882  7.2879999999999967
 19.8845944664947361  3.3801305315790882  9.3840000000000003
 19.8845944664947361  1.2841305315790883 11.4799999999999969
 17.7885944664947395  3.3801305315790882 11.4799999999999969
 19.8845944664947361  3.3801305315790882 13.5760000000000005
 19.8845944664947361  1.2841305315790883 15.6719999999999970
 17.7885944664947395  3.3801305315790882 15.6719999999999970
 19.8845944664947361  7.5721305315790888  1.0000000000000000
 19.8845944664947361  5.4761305315790887  3.0960000000000001
 17.7885944664947395  7.5721305315790888  3.0960000000000001
 19.8845944664947361  7.5721305315790888  5.1920000000000002
 19.8845944664947361  5.4761305315790887  7.2879999999999967
 17.7885944664947395  7.5721305315790888  7.2879999999999967
 19.8845944664947361  7.5721305315790888  9.3840000000000003
 19.8845944664947361  5.4761305315790887 11.4799999999999969
 17.7885944664947395  7.5721305315790888 11.4799999999999969
 19.8845944664947361  7.5721305315790888 13.5760000000000005
 19.8845944664947361  5.4761305315790887 15.6719999999999970
 17.7885944664947395  7.5721305315790888 15.6719999999999970
 19.8845944664947361 11.7641305315790881  1.0000000000000000
 19.8845944664947361  9.6681305315790880  3.0960000000000001
 17.7885944664947395 11.7641305315790881  3.0960000000000001
 19.8845944664947361 11.7641305315790881  5.1920000000000002
 19.8845944664947361  9.6681305315790880  7.2879999999999967
 17.7885944664947395 11.7641305315790881  7.2879999999999967
 19.8845944664947361 11.7641305315790881  9.3840000000000003
 19.8845944664947361  9.6681305315790880 11.4799999999999969
 17.7885944664947395 11.7641305315790881 11.4799999999999969
 19.8845944664947361 11.7641305315790881 13.5760000000000005
 19.8845944664947361  9.6681305315790880 15.6719999999999970
 17.7885944664947395 11.7641305315790881 15.6719999999999970
 19.8845944664947361 15.9561305315790882  1.0000000000000000
 19.8845944664947361 13.8601305315790881  3.0960000000000001
 17.7885944664947395 15.9561305315790882  3.0960000000000001
 19.8845944664947361 15.9561305315790882  5.1920000000000002
 19.8845944664947361 13.8601305315790881  7.2879999999999967
 17.7885944664947395 15.9561305315790882  7.2879999999999967
 19.8845944664947361 15.9561305315790882  9.3840000000000003
 19.8845944664947361 13.8601305315790881 11.4799999999999969
 17.7885944664947395 15.9561305315790882 11.4799999999999969
 19.8845944664947361 15.9561305315790882 13.5760000000000005
 19.8845944664947361 13.8601305315790881 15.6719999999999970
 17.7885944664947395 15.9561305315790882 15.6719999999999970
 19.8845944664947361 20.1481305315790884  1.0000000000000000
 19.8845944664947361 18.0521305315790919  3.0960000000000001
 17.7885944664947395 20.1481305315790884  3.0960000000000001
 19.8845944664947361 20.1481305315790884  5.1920000000000002
 19.8845944664947361 18.0521305315790919  7.2879999999999967
 17.7885944664947395 20.1481305315790884  7.2879999999999967
 19.8845944664947361 20.1481305315790884  9.3840000000000003
 19.8845944664947361 18.0521305315790919 11.4799999999999969
 17.7885944664947395 20.1481305315790884 11.4799999999999969
 19.8845944664947361 20.1481305315790884 13.5760000000000005
 19.8845944664947361 18.0521305315790919 15.6719999999999970
 17.7885944664947395 20.1481305315790884 15.6719999999999970
 14.5314398017616710  8.3849803397273401 20.4344423343593959
 13.0741875066777471 10.7428640833569187 20.4344423343593959
 14.5314398017616710 13.1007478269864972 20.4344423343593959
  8.3584200194185900 10.7428640833569187 20.4344423343593959
  6.9011677243346661 13.1007478269864972 20.4344423343593959
  6.9011677243346661  8.3849803397273401 20.4344423343593959
 12.1735560581320907  8.3849803397273401 21.8916946294433217
 15.4320712503073256 10.7428640833569187 21.8916946294433217
 13.6308083532160147 15.4586315706160757 21.8916946294433217
 10.7163037630481686 10.7428640833569187 21.8916946294433217
 10.7163037630481686 15.4586315706160757 21.8916946294433217
  7.8017991728803224  6.0270965960977616 21.8916946294433217
  6.0005362757890115 10.7428640833569187 21.8916946294433217
  9.2590514679642464 13.1007478269864972 21.8916946294433217
 12.1735560581320907 13.1007478269864972 21.8916946294433217
  9.2590514679642464  8.3849803397273401 21.8916946294433217
  7.8017991728803224 15.4586315706160757 21.8916946294433217
 10.7163037630481686  6.0270965960977616 21.8916946294433217
 13.6308083532160147  6.0270965960977616 21.8916946294433217
  8.3584200194185900 10.7428640833569187 23.3489469245272439
 14.5314398017616710 13.1007478269864972 23.3489469245272439
  6.9011677243346661  8.3849803397273401 23.3489469245272439
 13.0741875066777471 10.7428640833569187 23.3489469245272439
  6.9011677243346661 13.1007478269864972 23.3489469245272439
 14.5314398017616710  8.3849803397273401 23.3489469245272439
 10.7163037630481686 12.2001163784408408 24.2495783730729038
 12.1735560581320907  6.9277280446434162 24.2495783730729038
 10.7163037630481686  9.2856117882729965 24.2495783730729038
  9.2590514679642464 14.5580001220704212 24.2495783730729038
 12.1735560581320907 14.5580001220704212 24.2495783730729038
  9.2590514679642464  6.9277280446434162 24.2495783730729038
 15.4320712503073256 10.7428640833569187 24.8061992196111696
  6.0005362757890115 10.7428640833569187 24.8061992196111696
 13.0741875066777471  9.2856117882729965 25.7068306681568224
 13.0741875066777471 12.2001163784408408 25.7068306681568224
  8.3584200194185900  9.2856117882729965 25.7068306681568224
  8.3584200194185900 12.2001163784408408 25.7068306681568224
 10.7163037630481686  7.8283594931890725 26.6074621167024752
 10.7163037630481686 10.7428640833569187 26.6074621167024752
 10.7163037630481686 13.6573686735247648 26.6074621167024752
  3.1165944664947358  3.3801305315790882  3.0960000000000001
  3.1165944664947358  3.3801305315790882  7.2879999999999967
  3.1165944664947358  3.3801305315790882 11.4799999999999969
  3.1165944664947358  3.3801305315790882 15.6719999999999970
  3.1165944664947358  7.5721305315790888  3.0960000000000001
  3.1165944664947358  7.5721305315790888  7.2879999999999967
  3.1165944664947358  7.5721305315790888 11.4799999999999969
  3.1165944664947358  7.5721305315790888 15.6719999999999970
  3.1165944664947358 11.7641305315790881  3.0960000000000001
  3.1165944664947358 11.7641305315790881  7.2879999999999967
  3.1165944664947358 11.7641305315790881 11.4799999999999969
  3.1165944664947358 11.7641305315790881 15.6719999999999970
  3.1165944664947358 15.9561305315790882  3.0960000000000001
  3.1165944664947358 15.9561305315790882  7.2879999999999967
  3.1165944664947358 15.9561305315790882 11.4799999999999969
  3.1165944664947358 15.9561305315790882 15.6719999999999970
  3.1165944664947358 20.1481305315790884  3.0960000000000001
  3.1165944664947358 20.1481305315790884  7.2879999999999967
  3.1165944664947358 20.1481305315790884 11.4799999999999969
  3.1165944664947358 20.1481305315790884 15.6719999999999970
  7.3085944664947355  3.3801305315790882  3.0960000000000001
  7.3085944664947355  3.3801305315790882  7.2879999999999967
  7.3085944664947355  3.3801305315790882 11.4799999999999969
  7.3085944664947355  3.3801305315790882 15.6719999999999970
  7.3085944664947355  7.5721305315790888  3.0960000000000001
  7.3085944664947355  7.5721305315790888  7.2879999999999967
  7.3085944664947355  7.5721305315790888 11.4799999999999969
  7.3085944664947355  7.5721305315790888 15.6719999999999970
  7.3085944664947355 11.7641305315790881  3.0960000000000001
  7.3085944664947355 11.7641305315790881  7.2879999999999967
  7.3085944664947355 11.7641305315790881 11.4799999999999969
  7.3085944664947355 11.7641305315790881 15.6719999999999970
  7.3085944664947355 15.9561305315790882  3.0960000000000001
  7.3085944664947355 15.9561305315790882  7.2879999999999967